(set-logic HORN)
(set-info :source |
    Benchmark: C_VC
    Output by Princess (http://www.philipp.ruemmer.org/princess.shtml)
|)
(set-info :status sat)
;===============================================================================
; Encoding of Heap sorts and operations
;-------------------------------------------------------------------------------
(define-sort Addr() Int)
(declare-datatypes ((AddrRange 0))
                   (((AddrRange (AddrRangeStart Addr) (AddrRangeSize Int)))))

(declare-datatypes ((HeapObject 0))
                   (((O_Int (getInt Int)) (O_UInt (getUInt Int)) (O_Addr (getAddr Addr)) (defObj))))
(declare-datatypes ((BatchAllocResHeap 0) (AllocResHeap 0) (Heap 0))
                   (((BatchAllocResHeap   (newBatchHeap Heap) (newAddrRange AddrRange)))
                   ((AllocResHeap   (newHeap Heap) (newAddr Addr)))
                    ((HeapCtor (HeapSize Int)
                               (HeapContents (Array Addr HeapObject))))))
(define-fun nullAddr  () Addr 0)
(define-fun validHeap     ((h Heap) (p Addr)) Bool
  (and (>= (HeapSize h) p) (> p 0)))
(define-fun emptyHeap () Heap (
  HeapCtor 0 (( as const (Array Addr HeapObject)) defObj)))
(define-fun readHeap ((h Heap) (p Addr)) HeapObject
  (ite (validHeap h p)
       (select (HeapContents h) p)
       defObj))
(define-fun writeHeap ((h Heap) (p Addr) (o HeapObject)) Heap
  (ite (validHeap h p)
       (HeapCtor (HeapSize h) (store (HeapContents h) p o))
       h))
(define-fun allocHeap   ((h Heap) (o HeapObject)) AllocResHeap
  (AllocResHeap (HeapCtor (+ 1 (HeapSize h))
                    (store (HeapContents h) (+ 1 (HeapSize h)) o))
          (+ 1 (HeapSize h))))
(define-fun Heap-eq     ((h1 Heap) (h2 Heap)) Bool
  (forall ((p Addr))
          (and (= (validHeap h1 p) (validHeap h2 p))
               (= (readHeap h1 p) (readHeap h2 p)))))
(define-fun nthAddrRange((ar AddrRange) (n Int)) Addr
  (ite (and (>= n 0) (< n (AddrRangeSize ar)))
       (+ (AddrRangeStart ar) n)
       nullAddr))
(define-fun withinHeap ((ar AddrRange ) (p Addr)) Bool
  (and (>= p (AddrRangeStart ar)) (< p (+ (AddrRangeStart ar) (AddrRangeSize ar)))))

(declare-fun batchAllocHeap     (Heap Heap HeapObject Int Int) Bool)
(declare-fun batchAllocPostHeap (Heap Heap HeapObject Int) Bool)

(assert (forall ((h1 Heap) (h2 Heap) (o HeapObject) (n1 Int) (n2 Int))
                (=> (and (> n2 0) (batchAllocHeap h1 h2 o n1 n2))
                   (batchAllocHeap h1 (newHeap (allocHeap h2 o)) o n1 (- n2 1)))))
(assert (forall ((h1 Heap) (h2 Heap) (o HeapObject) (n1 Int) (n2 Int))
                (=> (and (<= n2 0) (batchAllocHeap h1 h2 o n1 n2))
                   (batchAllocPostHeap h1 h2 o n1))))

(declare-fun batchWriteHeap     (Heap Heap Addr Addr HeapObject Int Int) Bool)
(declare-fun batchWritePostHeap (Heap Heap Addr HeapObject Int) Bool)

(assert (forall ((h1 Heap) (h2 Heap) (a1 Addr) (a2 Addr) (o HeapObject) (n1 Int) (n2 Int))
                (=> (and (> n2 0) (batchWriteHeap h1 h2 a1 a2 o n1 n2))
                   (batchWriteHeap h1 (writeHeap h2 a2 o) a1 (+ a2 1) o n1 (- n2 1)))))
(assert (forall ((h1 Heap) (h2 Heap) (a1 Addr) (a2 Addr) (o HeapObject) (n1 Int) (n2 Int))
                (=> (and (<= n2 0) (batchWriteHeap h1 h2 a1 a2 o n1 n2))
                   (batchWritePostHeap h1 h2 a1 o n1))))

;===============================================================================
(declare-fun inv_main2 (Heap Int) Bool)
(declare-fun inv_main29 (Heap Int Int Int Int AddrRange) Bool)
(declare-fun inv_main32 (Heap Int Int Int Int AddrRange) Bool)
(declare-fun inv_main33 (Heap Int Int Int Int AddrRange) Bool)
(declare-fun inv_main35 (Heap Int Int Int Int AddrRange) Bool)
(declare-fun inv_main38 (Heap Int Int Int Int AddrRange Int) Bool)
(assert (inv_main2 emptyHeap 0))
(assert (forall ((var0 AddrRange) (var1 Int) (var2 Int) (var3 Int) (var4 Int) (var5 Heap)) (or (not (and (and (inv_main29 var5 var4 var3 var2 var1 var0) (<= 0 (+ var1 (* (- 1) 1)))) (<= 0 (+ var1 (* (- 1) var3))))) (inv_main32 var5 var4 var3 var2 var1 var0))))
(assert (forall ((var0 Int) (var1 AddrRange) (var2 Int) (var3 Int) (var4 Int) (var5 Int) (var6 Heap)) (or (not (and (inv_main38 var6 var5 var4 var3 var2 var1 var0) (<= 0 (+ (+ (* (- 1) (+ var3 1)) var5) (* (- 1) 1))))) (inv_main35 var6 var5 var4 (+ var3 1) var2 var1))))
(assert (forall ((var0 AddrRange) (var1 Int) (var2 Int) (var3 Int) (var4 Int) (var5 Heap) (var6 Int)) (or (not (and (and (and (inv_main29 var5 var4 var3 var2 var1 var0) (not (<= 0 (+ var1 (* (- 1) 1))))) (not (or (not (and (and (and (or (not (<= 0 (+ (+ (* (- 4) var6) var4) (* (- 1) 1)))) (<= 0 (+ var4 (* (- 1) 1)))) (<= 0 (+ (+ (* 1 (+ var4 (* (- 4) var6))) 4) (* (- 1) 1)))) (<= 0 (+ (+ (* (- 1) (+ var4 (* (- 4) var6))) 4) (* (- 1) 1)))) (or (not (<= 0 (+ (* (- 1) (+ var4 (* (- 4) var6))) (* (- 1) 1)))) (<= 0 (+ (* (- 1) var4) (* (- 1) 1)))))) (<= 0 (+ var6 (* (- 1) (+ var2 1))))))) (<= 0 (+ var4 (* (- 1) 1))))) (inv_main35 var5 var4 var3 0 var1 var0))))
(assert (forall ((var0 Int) (var1 Int) (var2 Int) (var3 Int) (var4 AddrRange) (var5 AddrRange) (var6 Int) (var7 Int) (var8 Int) (var9 Int) (var10 Int) (var11 Int) (var12 Int) (var13 Heap) (var14 Heap) (var15 Int) (var16 Int) (var17 Int) (var18 Heap) (var19 Int) (var20 Int) (var21 Int) (var22 Int) (var23 Int) (var24 Int) (var25 Int)) (or (not (and (batchAllocHeapPostHeap emptyHeap var13 (O_Int var3) var2) (and (and (and (and (and (and (and (and (and (and (and (and (and (and (and (and (and (and (and (and (and (and (and (inv_main2 var18 var17) (<= 0 (+ (+ (* (- 1) 1) var2) (* (- 1) 1)))) (= var4 (AddrRange (ite (<= 0 (+ var2 (- 1))) (+ (HeapSize emptyHeap) 1) (HeapSize emptyHeap)) var2))) (= var6 var0)) (= var8 var1)) (= var10 2)) (= var12 var2)) true) (= var24 0)) (= var12 (+ (* 4 var25) var24))) (or (not (<= 0 (+ (* (- 1) var24) (* (- 1) 1)))) (<= 0 (+ (* (- 1) var12) (* (- 1) 1))))) (or (not (<= 0 (+ var24 (* (- 1) 1)))) (<= 0 (+ var12 (* (- 1) 1))))) (<= 0 (+ (+ (* 1 var24) 4) (* (- 1) 1)))) (<= 0 (+ (+ (* (- 1) var24) 4) (* (- 1) 1)))) (or (and (and (and (and (and (and (= var20 0) (= var12 (+ (* 4 var21) var20))) (or (not (<= 0 (+ (* (- 1) var20) (* (- 1) 1)))) (<= 0 (+ (* (- 1) var12) (* (- 1) 1))))) (or (not (<= 0 (+ var20 (* (- 1) 1)))) (<= 0 (+ var12 (* (- 1) 1))))) (<= 0 (+ (+ (* 1 var20) 4) (* (- 1) 1)))) (<= 0 (+ (+ (* (- 1) var20) 4) (* (- 1) 1)))) (= var15 1)) (and (not (or (not (and (and (and (and (or (not (<= 0 (+ (* (- 1) var22) (* (- 1) 1)))) (<= 0 (+ (* (- 1) var12) (* (- 1) 1)))) (or (not (<= 0 (+ var22 (* (- 1) 1)))) (<= 0 (+ var12 (* (- 1) 1))))) (<= 0 (+ (+ (* 1 var22) 4) (* (- 1) 1)))) (<= 0 (+ (+ (* (- 1) var22) 4) (* (- 1) 1)))) (= var12 (+ (* 4 var23) var22)))) (= var22 0))) (= var15 0)))) (= var5 var4)) (= var7 var6)) (= var9 var8)) (= var11 var10)) (= var16 var12)) (= var14 var13)) (not (= var15 0))) (not (or (not (and (and (and (or (not (<= 0 (+ (+ (* (- 4) var19) var16) (* (- 1) 1)))) (<= 0 (+ var16 (* (- 1) 1)))) (<= 0 (+ (+ (* 1 (+ var16 (* (- 4) var19))) 4) (* (- 1) 1)))) (<= 0 (+ (+ (* (- 1) (+ var16 (* (- 4) var19))) 4) (* (- 1) 1)))) (or (not (<= 0 (+ (* (- 1) (+ var16 (* (- 4) var19))) (* (- 1) 1)))) (<= 0 (+ (* (- 1) var16) (* (- 1) 1)))))) (<= 0 (+ var19 (* (- 1) 1)))))) (<= 0 (+ var16 (* (- 1) 1)))))) (inv_main35 var14 var16 var11 0 var7 var5))))
(assert (forall ((var0 Int) (var1 Int) (var2 Int) (var3 Int) (var4 AddrRange) (var5 AddrRange) (var6 Int) (var7 Int) (var8 Int) (var9 Int) (var10 Int) (var11 Int) (var12 Int) (var13 Heap) (var14 Heap) (var15 Int) (var16 Int) (var17 Int) (var18 Heap) (var19 Int) (var20 Int) (var21 Int) (var22 Int) (var23 Int) (var24 Int) (var25 Int)) (or (not (and (and (and (and (and (and (and (and (and (and (and (and (and (and (and (and (and (and (and (and (and (and (and (inv_main2 var18 var17) (<= 0 (+ (+ (* (- 1) 1) var2) (* (- 1) 1)))) (= var4 (AddrRange (ite (<= 0 (+ var2 (- 1))) (+ (HeapSize emptyHeap) 1) (HeapSize emptyHeap)) var2))) (= var6 var0)) (= var8 var1)) (= var10 2)) (= var12 var2)) true) (= var24 0)) (= var12 (+ (* 4 var25) var24))) (or (not (<= 0 (+ (* (- 1) var24) (* (- 1) 1)))) (<= 0 (+ (* (- 1) var12) (* (- 1) 1))))) (or (not (<= 0 (+ var24 (* (- 1) 1)))) (<= 0 (+ var12 (* (- 1) 1))))) (<= 0 (+ (+ (* 1 var24) 4) (* (- 1) 1)))) (<= 0 (+ (+ (* (- 1) var24) 4) (* (- 1) 1)))) (or (and (and (and (and (and (and (= var20 0) (= var12 (+ (* 4 var21) var20))) (or (not (<= 0 (+ (* (- 1) var20) (* (- 1) 1)))) (<= 0 (+ (* (- 1) var12) (* (- 1) 1))))) (or (not (<= 0 (+ var20 (* (- 1) 1)))) (<= 0 (+ var12 (* (- 1) 1))))) (<= 0 (+ (+ (* 1 var20) 4) (* (- 1) 1)))) (<= 0 (+ (+ (* (- 1) var20) 4) (* (- 1) 1)))) (= var15 1)) (and (not (or (not (and (and (and (and (or (not (<= 0 (+ (* (- 1) var22) (* (- 1) 1)))) (<= 0 (+ (* (- 1) var12) (* (- 1) 1)))) (or (not (<= 0 (+ var22 (* (- 1) 1)))) (<= 0 (+ var12 (* (- 1) 1))))) (<= 0 (+ (+ (* 1 var22) 4) (* (- 1) 1)))) (<= 0 (+ (+ (* (- 1) var22) 4) (* (- 1) 1)))) (= var12 (+ (* 4 var23) var22)))) (= var22 0))) (= var15 0)))) (= var5 var4)) (= var7 var6)) (= var9 var8)) (= var11 var10)) (= var16 var12)) (= var14 var13)) (not (= var15 0))) (not (or (not (and (and (and (or (not (<= 0 (+ (+ (* (- 4) var19) var16) (* (- 1) 1)))) (<= 0 (+ var16 (* (- 1) 1)))) (<= 0 (+ (+ (* 1 (+ var16 (* (- 4) var19))) 4) (* (- 1) 1)))) (<= 0 (+ (+ (* (- 1) (+ var16 (* (- 4) var19))) 4) (* (- 1) 1)))) (or (not (<= 0 (+ (* (- 1) (+ var16 (* (- 4) var19))) (* (- 1) 1)))) (<= 0 (+ (* (- 1) var16) (* (- 1) 1)))))) (<= 0 (+ var19 (* (- 1) 1)))))) (<= 0 (+ var16 (* (- 1) 1))))) (batchAllocHeap emptyHeap emptyHeap (O_Int var3) var2 var2))))
(assert (forall ((var0 Int) (var1 AddrRange) (var2 Int) (var3 Int) (var4 Int) (var5 Int) (var6 Heap) (var7 AddrRange) (var8 Int) (var9 Int) (var10 Int) (var11 Int) (var12 Heap)) (or (not (and (and (and (and (and (and (and (and (and (and (inv_main35 var12 var11 var10 var9 var8 var7) (or (and (= (getInt (readHeap var12 (nthAddrRange var7 var9))) 0) (= var0 1)) (and (not (= (getInt (readHeap var12 (nthAddrRange var7 var9))) 0)) (= var0 0)))) (= var1 var7)) (= var2 var8)) (= var3 var9)) (= var4 var10)) (= var5 var11)) (= var6 var12)) (is-O_Int (readHeap var12 (nthAddrRange var7 var9)))) (not (<= 0 (+ (getInt (readHeap var12 (nthAddrRange var7 var9))) (* (- 1) var10))))) (is-O_Int (readHeap var12 (nthAddrRange var7 var9))))) (inv_main38 var6 var5 var4 var3 var2 var1 var0))))
(assert (forall ((var0 AddrRange) (var1 Int) (var2 Int) (var3 Int) (var4 Int) (var5 Heap)) (or (not (and (and (inv_main35 var5 var4 var3 var2 var1 var0) (<= 0 (+ (getInt (readHeap var5 (nthAddrRange var0 var2))) (* (- 1) var3)))) (is-O_Int (readHeap var5 (nthAddrRange var0 var2))))) (inv_main38 var5 var4 var3 var2 var1 var0 1))))
(assert (forall ((var0 AddrRange) (var1 Int) (var2 Int) (var3 Int) (var4 Int) (var5 Heap)) (or (not (and (and (inv_main29 var5 var4 var3 var2 var1 var0) (<= 0 (+ var1 (* (- 1) 1)))) (not (<= 0 (+ var1 (* (- 1) var3)))))) (inv_main33 var5 var4 var3 var2 var1 var0))))
(assert (forall ((var0 AddrRange) (var1 Int) (var2 Int) (var3 Int) (var4 Int) (var5 Heap) (var6 Int)) (or (not (and (and (and (and (and (and (inv_main29 var5 var4 var3 var2 var1 var0) (not (<= 0 (+ var1 (* (- 1) 1))))) (<= 0 (+ var6 (* (- 1) (+ var2 1))))) (or (not (<= 0 (+ (* (- 1) (+ var4 (* (- 4) var6))) (* (- 1) 1)))) (<= 0 (+ (* (- 1) var4) (* (- 1) 1))))) (or (not (<= 0 (+ (+ (* (- 4) var6) var4) (* (- 1) 1)))) (<= 0 (+ var4 (* (- 1) 1))))) (<= 0 (+ (+ (* 1 (+ var4 (* (- 4) var6))) 4) (* (- 1) 1)))) (<= 0 (+ (+ (* (- 1) (+ var4 (* (- 4) var6))) 4) (* (- 1) 1))))) (inv_main29 var5 var4 var3 (+ var2 1) 4 var0))))
(assert (forall ((var0 AddrRange) (var1 Int) (var2 Int) (var3 Int) (var4 Int) (var5 Heap) (var6 AddrRange) (var7 Int) (var8 Int) (var9 Int) (var10 Int) (var11 Heap)) (or (not (and (and (and (and (and (and (and (and (inv_main32 var11 var10 var9 var8 var7 var6) (= var0 var6)) (= var1 var7)) (= var2 var8)) (= var3 var9)) (= var4 var10)) (= var5 (writeHeap var11 (nthAddrRange var6 (+ (* 4 var8) (* (- 1) var7))) (O_Int var7)))) (is-O_Int (readHeap var11 (nthAddrRange var6 (+ (* 4 var8) (* (- 1) var7)))))) (is-O_Int (readHeap var11 (nthAddrRange var6 (+ (* 4 var8) (* (- 1) var7))))))) (inv_main29 var5 var4 var3 var2 (+ var1 (* (- 1) 1)) var0))))
(assert (forall ((var0 AddrRange) (var1 Int) (var2 Int) (var3 Int) (var4 Int) (var5 Heap) (var6 AddrRange) (var7 Int) (var8 Int) (var9 Int) (var10 Int) (var11 Heap)) (or (not (and (and (and (and (and (and (and (and (inv_main33 var11 var10 var9 var8 var7 var6) (= var0 var6)) (= var1 var7)) (= var2 var8)) (= var3 var9)) (= var4 var10)) (= var5 (writeHeap var11 (nthAddrRange var6 (+ (* 4 var8) (* (- 1) var7))) (O_Int 0)))) (is-O_Int (readHeap var11 (nthAddrRange var6 (+ (* 4 var8) (* (- 1) var7)))))) (is-O_Int (readHeap var11 (nthAddrRange var6 (+ (* 4 var8) (* (- 1) var7))))))) (inv_main29 var5 var4 var3 var2 (+ var1 (* (- 1) 1)) var0))))
(assert (forall ((var0 Int) (var1 Int) (var2 Int) (var3 Int) (var4 AddrRange) (var5 AddrRange) (var6 Int) (var7 Int) (var8 Int) (var9 Int) (var10 Int) (var11 Int) (var12 Int) (var13 Heap) (var14 Heap) (var15 Int) (var16 Int) (var17 Int) (var18 Heap) (var19 Int) (var20 Int) (var21 Int) (var22 Int) (var23 Int) (var24 Int) (var25 Int)) (or (not (and (batchAllocHeapPostHeap emptyHeap var13 (O_Int var3) var2) (and (and (and (and (and (and (and (and (and (and (and (and (and (and (and (and (and (and (and (and (and (and (and (and (and (and (inv_main2 var18 var17) (<= 0 (+ (+ (* (- 1) 1) var2) (* (- 1) 1)))) (= var4 (AddrRange (ite (<= 0 (+ var2 (- 1))) (+ (HeapSize emptyHeap) 1) (HeapSize emptyHeap)) var2))) (= var6 var0)) (= var8 var1)) (= var10 2)) (= var12 var2)) true) (= var24 0)) (= var12 (+ (* 4 var25) var24))) (or (not (<= 0 (+ (* (- 1) var24) (* (- 1) 1)))) (<= 0 (+ (* (- 1) var12) (* (- 1) 1))))) (or (not (<= 0 (+ var24 (* (- 1) 1)))) (<= 0 (+ var12 (* (- 1) 1))))) (<= 0 (+ (+ (* 1 var24) 4) (* (- 1) 1)))) (<= 0 (+ (+ (* (- 1) var24) 4) (* (- 1) 1)))) (or (and (and (and (and (and (and (= var20 0) (= var12 (+ (* 4 var21) var20))) (or (not (<= 0 (+ (* (- 1) var20) (* (- 1) 1)))) (<= 0 (+ (* (- 1) var12) (* (- 1) 1))))) (or (not (<= 0 (+ var20 (* (- 1) 1)))) (<= 0 (+ var12 (* (- 1) 1))))) (<= 0 (+ (+ (* 1 var20) 4) (* (- 1) 1)))) (<= 0 (+ (+ (* (- 1) var20) 4) (* (- 1) 1)))) (= var15 1)) (and (not (or (not (and (and (and (and (or (not (<= 0 (+ (* (- 1) var22) (* (- 1) 1)))) (<= 0 (+ (* (- 1) var12) (* (- 1) 1)))) (or (not (<= 0 (+ var22 (* (- 1) 1)))) (<= 0 (+ var12 (* (- 1) 1))))) (<= 0 (+ (+ (* 1 var22) 4) (* (- 1) 1)))) (<= 0 (+ (+ (* (- 1) var22) 4) (* (- 1) 1)))) (= var12 (+ (* 4 var23) var22)))) (= var22 0))) (= var15 0)))) (= var5 var4)) (= var7 var6)) (= var9 var8)) (= var11 var10)) (= var16 var12)) (= var14 var13)) (not (= var15 0))) (<= 0 (+ var19 (* (- 1) 1)))) (or (not (<= 0 (+ (* (- 1) (+ var16 (* (- 4) var19))) (* (- 1) 1)))) (<= 0 (+ (* (- 1) var16) (* (- 1) 1))))) (or (not (<= 0 (+ (+ (* (- 4) var19) var16) (* (- 1) 1)))) (<= 0 (+ var16 (* (- 1) 1))))) (<= 0 (+ (+ (* 1 (+ var16 (* (- 4) var19))) 4) (* (- 1) 1)))) (<= 0 (+ (+ (* (- 1) (+ var16 (* (- 4) var19))) 4) (* (- 1) 1)))))) (inv_main29 var14 var16 var11 1 4 var5))))
(assert (forall ((var0 Int) (var1 Int) (var2 Int) (var3 Int) (var4 AddrRange) (var5 AddrRange) (var6 Int) (var7 Int) (var8 Int) (var9 Int) (var10 Int) (var11 Int) (var12 Int) (var13 Heap) (var14 Heap) (var15 Int) (var16 Int) (var17 Int) (var18 Heap) (var19 Int) (var20 Int) (var21 Int) (var22 Int) (var23 Int) (var24 Int) (var25 Int)) (or (not (and (and (and (and (and (and (and (and (and (and (and (and (and (and (and (and (and (and (and (and (and (and (and (and (and (and (inv_main2 var18 var17) (<= 0 (+ (+ (* (- 1) 1) var2) (* (- 1) 1)))) (= var4 (AddrRange (ite (<= 0 (+ var2 (- 1))) (+ (HeapSize emptyHeap) 1) (HeapSize emptyHeap)) var2))) (= var6 var0)) (= var8 var1)) (= var10 2)) (= var12 var2)) true) (= var24 0)) (= var12 (+ (* 4 var25) var24))) (or (not (<= 0 (+ (* (- 1) var24) (* (- 1) 1)))) (<= 0 (+ (* (- 1) var12) (* (- 1) 1))))) (or (not (<= 0 (+ var24 (* (- 1) 1)))) (<= 0 (+ var12 (* (- 1) 1))))) (<= 0 (+ (+ (* 1 var24) 4) (* (- 1) 1)))) (<= 0 (+ (+ (* (- 1) var24) 4) (* (- 1) 1)))) (or (and (and (and (and (and (and (= var20 0) (= var12 (+ (* 4 var21) var20))) (or (not (<= 0 (+ (* (- 1) var20) (* (- 1) 1)))) (<= 0 (+ (* (- 1) var12) (* (- 1) 1))))) (or (not (<= 0 (+ var20 (* (- 1) 1)))) (<= 0 (+ var12 (* (- 1) 1))))) (<= 0 (+ (+ (* 1 var20) 4) (* (- 1) 1)))) (<= 0 (+ (+ (* (- 1) var20) 4) (* (- 1) 1)))) (= var15 1)) (and (not (or (not (and (and (and (and (or (not (<= 0 (+ (* (- 1) var22) (* (- 1) 1)))) (<= 0 (+ (* (- 1) var12) (* (- 1) 1)))) (or (not (<= 0 (+ var22 (* (- 1) 1)))) (<= 0 (+ var12 (* (- 1) 1))))) (<= 0 (+ (+ (* 1 var22) 4) (* (- 1) 1)))) (<= 0 (+ (+ (* (- 1) var22) 4) (* (- 1) 1)))) (= var12 (+ (* 4 var23) var22)))) (= var22 0))) (= var15 0)))) (= var5 var4)) (= var7 var6)) (= var9 var8)) (= var11 var10)) (= var16 var12)) (= var14 var13)) (not (= var15 0))) (<= 0 (+ var19 (* (- 1) 1)))) (or (not (<= 0 (+ (* (- 1) (+ var16 (* (- 4) var19))) (* (- 1) 1)))) (<= 0 (+ (* (- 1) var16) (* (- 1) 1))))) (or (not (<= 0 (+ (+ (* (- 4) var19) var16) (* (- 1) 1)))) (<= 0 (+ var16 (* (- 1) 1))))) (<= 0 (+ (+ (* 1 (+ var16 (* (- 4) var19))) 4) (* (- 1) 1)))) (<= 0 (+ (+ (* (- 1) (+ var16 (* (- 4) var19))) 4) (* (- 1) 1))))) (batchAllocHeap emptyHeap emptyHeap (O_Int var3) var2 var2))))
(assert (forall ((var0 AddrRange) (var1 Int) (var2 Int) (var3 Int) (var4 Int) (var5 Heap)) (not (and (inv_main32 var5 var4 var3 var2 var1 var0) (not (is-O_Int (readHeap var5 (nthAddrRange var0 (+ (* 4 var2) (* (- 1) var1))))))))))
(assert (forall ((var0 AddrRange) (var1 Int) (var2 Int) (var3 Int) (var4 Int) (var5 Heap)) (not (and (and (inv_main32 var5 var4 var3 var2 var1 var0) (not (withinHeap var0 (nthAddrRange var0 (+ (* 4 var2) (* (- 1) var1)))))) (is-O_Int (readHeap var5 (nthAddrRange var0 (+ (* 4 var2) (* (- 1) var1)))))))))
(assert (forall ((var0 AddrRange) (var1 Int) (var2 Int) (var3 Int) (var4 Int) (var5 Heap)) (not (and (and (inv_main32 var5 var4 var3 var2 var1 var0) (not (is-O_Int (readHeap var5 (nthAddrRange var0 (+ (* 4 var2) (* (- 1) var1))))))) (is-O_Int (readHeap var5 (nthAddrRange var0 (+ (* 4 var2) (* (- 1) var1)))))))))
(assert (forall ((var0 AddrRange) (var1 Int) (var2 Int) (var3 Int) (var4 Int) (var5 Heap)) (not (and (inv_main33 var5 var4 var3 var2 var1 var0) (not (is-O_Int (readHeap var5 (nthAddrRange var0 (+ (* 4 var2) (* (- 1) var1))))))))))
(assert (forall ((var0 AddrRange) (var1 Int) (var2 Int) (var3 Int) (var4 Int) (var5 Heap)) (not (and (and (inv_main33 var5 var4 var3 var2 var1 var0) (not (withinHeap var0 (nthAddrRange var0 (+ (* 4 var2) (* (- 1) var1)))))) (is-O_Int (readHeap var5 (nthAddrRange var0 (+ (* 4 var2) (* (- 1) var1)))))))))
(assert (forall ((var0 AddrRange) (var1 Int) (var2 Int) (var3 Int) (var4 Int) (var5 Heap)) (not (and (and (inv_main33 var5 var4 var3 var2 var1 var0) (not (is-O_Int (readHeap var5 (nthAddrRange var0 (+ (* 4 var2) (* (- 1) var1))))))) (is-O_Int (readHeap var5 (nthAddrRange var0 (+ (* 4 var2) (* (- 1) var1)))))))))
(assert (forall ((var0 AddrRange) (var1 Int) (var2 Int) (var3 Int) (var4 Int) (var5 Heap)) (not (and (inv_main35 var5 var4 var3 var2 var1 var0) (not (is-O_Int (readHeap var5 (nthAddrRange var0 var2))))))))
(assert (forall ((var0 AddrRange) (var1 Int) (var2 Int) (var3 Int) (var4 Int) (var5 Heap)) (not (and (inv_main35 var5 var4 var3 var2 var1 var0) (not (withinHeap var0 (nthAddrRange var0 var2)))))))
(assert (forall ((var0 AddrRange) (var1 Int) (var2 Int) (var3 Int) (var4 Int) (var5 Heap)) (not (and (inv_main35 var5 var4 var3 var2 var1 var0) (not (is-O_Int (readHeap var5 (nthAddrRange var0 var2))))))))
(assert (forall ((var0 AddrRange) (var1 Int) (var2 Int) (var3 Int) (var4 Int) (var5 Heap)) (not (and (inv_main35 var5 var4 var3 var2 var1 var0) (not (withinHeap var0 (nthAddrRange var0 var2)))))))
(assert (forall ((var0 AddrRange) (var1 Int) (var2 Int) (var3 Int) (var4 Int) (var5 Heap)) (not (and (inv_main35 var5 var4 var3 var2 var1 var0) (not (is-O_Int (readHeap var5 (nthAddrRange var0 var2))))))))
(assert (forall ((var0 AddrRange) (var1 Int) (var2 Int) (var3 Int) (var4 Int) (var5 Heap)) (not (and (and (inv_main35 var5 var4 var3 var2 var1 var0) (not (withinHeap var0 (nthAddrRange var0 var2)))) (is-O_Int (readHeap var5 (nthAddrRange var0 var2)))))))
(assert (forall ((var0 AddrRange) (var1 Int) (var2 Int) (var3 Int) (var4 Int) (var5 Heap)) (not (and (and (and (inv_main35 var5 var4 var3 var2 var1 var0) (not (is-O_Int (readHeap var5 (nthAddrRange var0 var2))))) (not (<= 0 (+ (getInt (readHeap var5 (nthAddrRange var0 var2))) (* (- 1) var3))))) (is-O_Int (readHeap var5 (nthAddrRange var0 var2)))))))
(assert (forall ((var0 AddrRange) (var1 Int) (var2 Int) (var3 Int) (var4 Int) (var5 Heap)) (not (and (and (and (and (inv_main35 var5 var4 var3 var2 var1 var0) (not (withinHeap var0 (nthAddrRange var0 var2)))) (is-O_Int (readHeap var5 (nthAddrRange var0 var2)))) (not (<= 0 (+ (getInt (readHeap var5 (nthAddrRange var0 var2))) (* (- 1) var3))))) (is-O_Int (readHeap var5 (nthAddrRange var0 var2)))))))
(assert (forall ((var0 Int) (var1 AddrRange) (var2 Int) (var3 Int) (var4 Int) (var5 Int) (var6 Heap)) (not (and (inv_main38 var6 var5 var4 var3 var2 var1 var0) (= var0 0)))))
(check-sat)
